language Essence 1.3

letting bot_end be [72, 18, 1024, 94, 1010, 1023, 1025, 98, 35, 93, 39, 110, 971, 935, 944; int(1..15)]
letting bot_start be [1008, 856, 97, 992, 72, 61, 134, 1006, 1011, 1009, 967, 988, 33, 18, 0; int(1..15)]
letting buffer_col be 2
letting buffer_row be 2
letting corridor_size be 1
letting n_shelves_col be 5
letting n_shelves_row be 25
letting shelf_col_size be 2
letting shelf_row_size be 1
